sat
(:added-eqs                   9873
 :arith-bound-propagations-lp 36441
 :arith-conflicts             408
 :arith-fixed-eqs             3095
 :arith-lower                 57514
 :arith-make-feasible         23622
 :arith-max-columns           870
 :arith-max-rows              441
 :arith-offset-eqs            6869
 :arith-upper                 40781
 :binary-propagations         67324
 :conflicts                   623
 :decisions                   15849
 :del-clause                  112
 :final-checks                1
 :max-memory                  31.40
 :memory                      21.00
 :minimized-lits              1015
 :mk-bool-var                 3799
 :mk-clause                   1395
 :mk-clause-binary            5314
 :num-allocs                  665524481
 :num-checks                  1
 :propagations                81168
 :restarts                    3
 :rlimit-count                1695922
 :solve-eqs-elim-vars         355
 :solve-eqs-steps             2203
 :time                        3.54
 :total-time                  3.51)
